instances/shortest_path/discrete/shortest_path_5_15.lp
\ Model nohadani_5_15
\ LP format - for model browsing. Use MPS format to capture full model detail.
\ Signature: 0xa1d49c5c4aa7c587
Minimize
  47.43416490252569 y[0,1] + 25.96150997149434 y[0,2]
   + 30.80584360149873 y[0,3] + 47.43416490252569 y[1,0]
   + 55.17245689653489 y[1,2] + 38.58756276314948 y[1,3]
   + 25.96150997149434 y[2,0] + 55.17245689653489 y[2,1]
   + 19.31320791582797 y[2,3] + 42.1070065428546 y[2,4]
   + 30.80584360149873 y[3,0] + 38.58756276314948 y[3,1]
   + 19.31320791582797 y[3,2] + 51.24451190127583 y[3,4]
   + 42.1070065428546 y[4,2] + 51.24451190127583 y[4,3] + x[0,1] + x[0,2]
   + x[0,3] + x[1,0] + x[1,2] + x[1,3] + x[2,0] + x[2,1] + x[2,3] + x[2,4]
   + x[3,0] + x[3,1] + x[3,2] + x[3,4] + x[4,2] + x[4,3]
   + 4.743416490252569 r[0,1] + 2.596150997149434 r[0,2]
   + 3.080584360149873 r[0,3] + 4.743416490252569 r[1,0]
   + 5.517245689653489 r[1,2] + 3.858756276314948 r[1,3]
   + 2.596150997149434 r[2,0] + 5.517245689653489 r[2,1]
   + 1.931320791582797 r[2,3] + 4.21070065428546 r[2,4]
   + 3.080584360149873 r[3,0] + 3.858756276314948 r[3,1]
   + 1.931320791582797 r[3,2] + 5.124451190127584 r[3,4]
   + 4.21070065428546 r[4,2] + 5.124451190127584 r[4,3]
Subject To
 flow_cons_inner_nodes[0]: - y[0,1] - y[0,2] - y[0,3] + y[1,0] + y[2,0]
   + y[3,0] = 0
 flow_cons_inner_nodes[2]: y[0,2] + y[1,2] - y[2,0] - y[2,1] - y[2,3]
   - y[2,4] + y[3,2] + y[4,2] = 0
 flow_cons_inner_nodes[3]: y[0,3] + y[1,3] + y[2,3] - y[3,0] - y[3,1]
   - y[3,2] - y[3,4] + y[4,3] = 0
 flow_cons_source: - y[0,1] + y[1,0] + y[1,2] + y[1,3] - y[2,1] - y[3,1]
   = 1
 flow_cons_target: y[2,4] + y[3,4] - y[4,2] - y[4,3] = 1
 primal_lower: 5.405402849611721 x[0,1] + 3.876650310778102 x[0,2]
   + 5.387162565993364 x[0,3] + 1.297701087110027 x[1,0]
   + 2.459469589717051 x[1,2] + 3.202786991147434 x[1,3]
   + 3.759067365724424 x[2,0] + 3.349840121653823 x[2,1]
   + 2.949247578538731 x[2,3] + 5.13896359355045 x[2,4]
   + 3.424555816784782 x[3,0] + 2.63359122303146 x[3,1]
   + 2.760952784142133 x[3,2] + 2.806516723930228 x[3,4]
   + 4.545400585686457 x[4,2] + 3.636976040578026 x[4,3] + 43 u[0,1]
   + 51 u[0,2] + 89 u[0,3] + 50 u[1,0] + 63 u[1,2] + 9 u[1,3] + 24 u[2,0]
   + 71 u[2,1] + 8 u[2,3] + 49 u[2,4] + 55 u[3,0] + 78 u[3,1] + 87 u[3,2]
   + 3 u[3,4] + 100 u[4,2] + 24 u[4,3] <= 100
 mccormick1[0,1]: - u[0,1] + r[0,1] <= 0
 mccormick1[0,2]: - u[0,2] + r[0,2] <= 0
 mccormick1[0,3]: - u[0,3] + r[0,3] <= 0
 mccormick1[1,0]: - u[1,0] + r[1,0] <= 0
 mccormick1[1,2]: - u[1,2] + r[1,2] <= 0
 mccormick1[1,3]: - u[1,3] + r[1,3] <= 0
 mccormick1[2,0]: - u[2,0] + r[2,0] <= 0
 mccormick1[2,1]: - u[2,1] + r[2,1] <= 0
 mccormick1[2,3]: - u[2,3] + r[2,3] <= 0
 mccormick1[2,4]: - u[2,4] + r[2,4] <= 0
 mccormick1[3,0]: - u[3,0] + r[3,0] <= 0
 mccormick1[3,1]: - u[3,1] + r[3,1] <= 0
 mccormick1[3,2]: - u[3,2] + r[3,2] <= 0
 mccormick1[3,4]: - u[3,4] + r[3,4] <= 0
 mccormick1[4,2]: - u[4,2] + r[4,2] <= 0
 mccormick1[4,3]: - u[4,3] + r[4,3] <= 0
 mccormick2[0,1]: - y[0,1] + r[0,1] <= 0
 mccormick2[0,2]: - y[0,2] + r[0,2] <= 0
 mccormick2[0,3]: - y[0,3] + r[0,3] <= 0
 mccormick2[1,0]: - y[1,0] + r[1,0] <= 0
 mccormick2[1,2]: - y[1,2] + r[1,2] <= 0
 mccormick2[1,3]: - y[1,3] + r[1,3] <= 0
 mccormick2[2,0]: - y[2,0] + r[2,0] <= 0
 mccormick2[2,1]: - y[2,1] + r[2,1] <= 0
 mccormick2[2,3]: - y[2,3] + r[2,3] <= 0
 mccormick2[2,4]: - y[2,4] + r[2,4] <= 0
 mccormick2[3,0]: - y[3,0] + r[3,0] <= 0
 mccormick2[3,1]: - y[3,1] + r[3,1] <= 0
 mccormick2[3,2]: - y[3,2] + r[3,2] <= 0
 mccormick2[3,4]: - y[3,4] + r[3,4] <= 0
 mccormick2[4,2]: - y[4,2] + r[4,2] <= 0
 mccormick2[4,3]: - y[4,3] + r[4,3] <= 0
 mccormick3[0,1]: - y[0,1] - u[0,1] + r[0,1] >= -1
 mccormick3[0,2]: - y[0,2] - u[0,2] + r[0,2] >= -1
 mccormick3[0,3]: - y[0,3] - u[0,3] + r[0,3] >= -1
 mccormick3[1,0]: - y[1,0] - u[1,0] + r[1,0] >= -1
 mccormick3[1,2]: - y[1,2] - u[1,2] + r[1,2] >= -1
 mccormick3[1,3]: - y[1,3] - u[1,3] + r[1,3] >= -1
 mccormick3[2,0]: - y[2,0] - u[2,0] + r[2,0] >= -1
 mccormick3[2,1]: - y[2,1] - u[2,1] + r[2,1] >= -1
 mccormick3[2,3]: - y[2,3] - u[2,3] + r[2,3] >= -1
 mccormick3[2,4]: - y[2,4] - u[2,4] + r[2,4] >= -1
 mccormick3[3,0]: - y[3,0] - u[3,0] + r[3,0] >= -1
 mccormick3[3,1]: - y[3,1] - u[3,1] + r[3,1] >= -1
 mccormick3[3,2]: - y[3,2] - u[3,2] + r[3,2] >= -1
 mccormick3[3,4]: - y[3,4] - u[3,4] + r[3,4] >= -1
 mccormick3[4,2]: - y[4,2] - u[4,2] + r[4,2] >= -1
 mccormick3[4,3]: - y[4,3] - u[4,3] + r[4,3] >= -1
Bounds
Binaries
 y[0,1] y[0,2] y[0,3] y[1,0] y[1,2] y[1,3] y[2,0] y[2,1] y[2,3] y[2,4]
 y[3,0] y[3,1] y[3,2] y[3,4] y[4,2] y[4,3] x[0,1] x[0,2] x[0,3] x[1,0]
 x[1,2] x[1,3] x[2,0] x[2,1] x[2,3] x[2,4] x[3,0] x[3,1] x[3,2] x[3,4]
 x[4,2] x[4,3] u[0,1] u[0,2] u[0,3] u[1,0] u[1,2] u[1,3] u[2,0] u[2,1]
 u[2,3] u[2,4] u[3,0] u[3,1] u[3,2] u[3,4] u[4,2] u[4,3] r[0,1] r[0,2]
 r[0,3] r[1,0] r[1,2] r[1,3] r[2,0] r[2,1] r[2,3] r[2,4] r[3,0] r[3,1]
 r[3,2] r[3,4] r[4,2] r[4,3]
End
