instances/shortest_path/discrete/shortest_path_5_15.mps
* Signature: 0xa1d49c5c4aa8e6b7
NAME nohadani_5_15
ROWS
 N  OBJ
 E  flow_cons_inner_nodes[0]
 E  flow_cons_inner_nodes[3]
 E  flow_cons_inner_nodes[4]
 E  flow_cons_source
 E  flow_cons_target
 L  primal_lower
 L  mccormick1[0,2]
 L  mccormick1[0,3]
 L  mccormick1[0,4]
 L  mccormick1[1,3]
 L  mccormick1[1,4]
 L  mccormick1[2,0]
 L  mccormick1[2,3]
 L  mccormick1[2,4]
 L  mccormick1[3,0]
 L  mccormick1[3,1]
 L  mccormick1[3,2]
 L  mccormick1[3,4]
 L  mccormick1[4,0]
 L  mccormick1[4,1]
 L  mccormick1[4,2]
 L  mccormick1[4,3]
 L  mccormick2[0,2]
 L  mccormick2[0,3]
 L  mccormick2[0,4]
 L  mccormick2[1,3]
 L  mccormick2[1,4]
 L  mccormick2[2,0]
 L  mccormick2[2,3]
 L  mccormick2[2,4]
 L  mccormick2[3,0]
 L  mccormick2[3,1]
 L  mccormick2[3,2]
 L  mccormick2[3,4]
 L  mccormick2[4,0]
 L  mccormick2[4,1]
 L  mccormick2[4,2]
 L  mccormick2[4,3]
 G  mccormick3[0,2]
 G  mccormick3[0,3]
 G  mccormick3[0,4]
 G  mccormick3[1,3]
 G  mccormick3[1,4]
 G  mccormick3[2,0]
 G  mccormick3[2,3]
 G  mccormick3[2,4]
 G  mccormick3[3,0]
 G  mccormick3[3,1]
 G  mccormick3[3,2]
 G  mccormick3[3,4]
 G  mccormick3[4,0]
 G  mccormick3[4,1]
 G  mccormick3[4,2]
 G  mccormick3[4,3]
COLUMNS
    MARKER    'MARKER'                 'INTORG'
    y[0,2]    OBJ       19.24
    y[0,2]    flow_cons_inner_nodes[0]  -1
    y[0,2]    flow_cons_target  1
    y[0,2]    mccormick2[0,2]  -1
    y[0,2]    mccormick3[0,2]  -1
    y[0,3]    OBJ       60.3
    y[0,3]    flow_cons_inner_nodes[0]  -1
    y[0,3]    flow_cons_inner_nodes[3]  1
    y[0,3]    mccormick2[0,3]  -1
    y[0,3]    mccormick3[0,3]  -1
    y[0,4]    OBJ       56.89
    y[0,4]    flow_cons_inner_nodes[0]  -1
    y[0,4]    flow_cons_inner_nodes[4]  1
    y[0,4]    mccormick2[0,4]  -1
    y[0,4]    mccormick3[0,4]  -1
    y[1,3]    OBJ       37.36
    y[1,3]    flow_cons_inner_nodes[3]  1
    y[1,3]    flow_cons_source  1
    y[1,3]    mccormick2[1,3]  -1
    y[1,3]    mccormick3[1,3]  -1
    y[1,4]    OBJ       42.38
    y[1,4]    flow_cons_inner_nodes[4]  1
    y[1,4]    flow_cons_source  1
    y[1,4]    mccormick2[1,4]  -1
    y[1,4]    mccormick3[1,4]  -1
    y[2,0]    OBJ       19.24
    y[2,0]    flow_cons_inner_nodes[0]  1
    y[2,0]    flow_cons_target  -1
    y[2,0]    mccormick2[2,0]  -1
    y[2,0]    mccormick3[2,0]  -1
    y[2,3]    OBJ       64.33
    y[2,3]    flow_cons_inner_nodes[3]  1
    y[2,3]    flow_cons_target  -1
    y[2,3]    mccormick2[2,3]  -1
    y[2,3]    mccormick3[2,3]  -1
    y[2,4]    OBJ       59.68
    y[2,4]    flow_cons_inner_nodes[4]  1
    y[2,4]    flow_cons_target  -1
    y[2,4]    mccormick2[2,4]  -1
    y[2,4]    mccormick3[2,4]  -1
    y[3,0]    OBJ       60.3
    y[3,0]    flow_cons_inner_nodes[0]  1
    y[3,0]    flow_cons_inner_nodes[3]  -1
    y[3,0]    mccormick2[3,0]  -1
    y[3,0]    mccormick3[3,0]  -1
    y[3,1]    OBJ       37.36
    y[3,1]    flow_cons_inner_nodes[3]  -1
    y[3,1]    flow_cons_source  -1
    y[3,1]    mccormick2[3,1]  -1
    y[3,1]    mccormick3[3,1]  -1
    y[3,2]    OBJ       64.33
    y[3,2]    flow_cons_inner_nodes[3]  -1
    y[3,2]    flow_cons_target  1
    y[3,2]    mccormick2[3,2]  -1
    y[3,2]    mccormick3[3,2]  -1
    y[3,4]    OBJ       5.66
    y[3,4]    flow_cons_inner_nodes[3]  -1
    y[3,4]    flow_cons_inner_nodes[4]  1
    y[3,4]    mccormick2[3,4]  -1
    y[3,4]    mccormick3[3,4]  -1
    y[4,0]    OBJ       56.89
    y[4,0]    flow_cons_inner_nodes[0]  1
    y[4,0]    flow_cons_inner_nodes[4]  -1
    y[4,0]    mccormick2[4,0]  -1
    y[4,0]    mccormick3[4,0]  -1
    y[4,1]    OBJ       42.38
    y[4,1]    flow_cons_inner_nodes[4]  -1
    y[4,1]    flow_cons_source  -1
    y[4,1]    mccormick2[4,1]  -1
    y[4,1]    mccormick3[4,1]  -1
    y[4,2]    OBJ       59.68
    y[4,2]    flow_cons_inner_nodes[4]  -1
    y[4,2]    flow_cons_target  1
    y[4,2]    mccormick2[4,2]  -1
    y[4,2]    mccormick3[4,2]  -1
    y[4,3]    OBJ       5.66
    y[4,3]    flow_cons_inner_nodes[3]  1
    y[4,3]    flow_cons_inner_nodes[4]  -1
    y[4,3]    mccormick2[4,3]  -1
    y[4,3]    mccormick3[4,3]  -1
    x[0,2]    OBJ       1
    x[0,2]    primal_lower  0.54
    x[0,3]    OBJ       1
    x[0,3]    primal_lower  1.43
    x[0,4]    OBJ       1
    x[0,4]    primal_lower  2.54
    x[1,3]    OBJ       1
    x[1,3]    primal_lower  1.92
    x[1,4]    OBJ       1
    x[1,4]    primal_lower  3.5
    x[2,0]    OBJ       1
    x[2,0]    primal_lower  3.37
    x[2,3]    OBJ       1
    x[2,3]    primal_lower  4.99
    x[2,4]    OBJ       1
    x[2,4]    primal_lower  5.68
    x[3,0]    OBJ       1
    x[3,0]    primal_lower  3.23
    x[3,1]    OBJ       1
    x[3,1]    primal_lower  2.63
    x[3,2]    OBJ       1
    x[3,2]    primal_lower  0.44
    x[3,4]    OBJ       1
    x[3,4]    primal_lower  5.56
    x[4,0]    OBJ       1
    x[4,0]    primal_lower  2.6
    x[4,1]    OBJ       1
    x[4,1]    primal_lower  3.6
    x[4,2]    OBJ       1
    x[4,2]    primal_lower  1.33
    x[4,3]    OBJ       1
    x[4,3]    primal_lower  2.77
    u[0,2]    primal_lower  17
    u[0,2]    mccormick1[0,2]  -1
    u[0,2]    mccormick3[0,2]  -1
    u[0,3]    primal_lower  66
    u[0,3]    mccormick1[0,3]  -1
    u[0,3]    mccormick3[0,3]  -1
    u[0,4]    primal_lower  76
    u[0,4]    mccormick1[0,4]  -1
    u[0,4]    mccormick3[0,4]  -1
    u[1,3]    primal_lower  29
    u[1,3]    mccormick1[1,3]  -1
    u[1,3]    mccormick3[1,3]  -1
    u[1,4]    primal_lower  14
    u[1,4]    mccormick1[1,4]  -1
    u[1,4]    mccormick3[1,4]  -1
    u[2,0]    primal_lower  99
    u[2,0]    mccormick1[2,0]  -1
    u[2,0]    mccormick3[2,0]  -1
    u[2,3]    primal_lower  75
    u[2,3]    mccormick1[2,3]  -1
    u[2,3]    mccormick3[2,3]  -1
    u[2,4]    primal_lower  37
    u[2,4]    mccormick1[2,4]  -1
    u[2,4]    mccormick3[2,4]  -1
    u[3,0]    primal_lower  71
    u[3,0]    mccormick1[3,0]  -1
    u[3,0]    mccormick3[3,0]  -1
    u[3,1]    primal_lower  72
    u[3,1]    mccormick1[3,1]  -1
    u[3,1]    mccormick3[3,1]  -1
    u[3,2]    primal_lower  13
    u[3,2]    mccormick1[3,2]  -1
    u[3,2]    mccormick3[3,2]  -1
    u[3,4]    primal_lower  9
    u[3,4]    mccormick1[3,4]  -1
    u[3,4]    mccormick3[3,4]  -1
    u[4,0]    primal_lower  6
    u[4,0]    mccormick1[4,0]  -1
    u[4,0]    mccormick3[4,0]  -1
    u[4,1]    primal_lower  98
    u[4,1]    mccormick1[4,1]  -1
    u[4,1]    mccormick3[4,1]  -1
    u[4,2]    primal_lower  22
    u[4,2]    mccormick1[4,2]  -1
    u[4,2]    mccormick3[4,2]  -1
    u[4,3]    primal_lower  94
    u[4,3]    mccormick1[4,3]  -1
    u[4,3]    mccormick3[4,3]  -1
    r[0,2]    OBJ       1.924
    r[0,2]    mccormick1[0,2]  1
    r[0,2]    mccormick2[0,2]  1
    r[0,2]    mccormick3[0,2]  1
    r[0,3]    OBJ       6.03
    r[0,3]    mccormick1[0,3]  1
    r[0,3]    mccormick2[0,3]  1
    r[0,3]    mccormick3[0,3]  1
    r[0,4]    OBJ       5.689
    r[0,4]    mccormick1[0,4]  1
    r[0,4]    mccormick2[0,4]  1
    r[0,4]    mccormick3[0,4]  1
    r[1,3]    OBJ       3.736
    r[1,3]    mccormick1[1,3]  1
    r[1,3]    mccormick2[1,3]  1
    r[1,3]    mccormick3[1,3]  1
    r[1,4]    OBJ       4.238
    r[1,4]    mccormick1[1,4]  1
    r[1,4]    mccormick2[1,4]  1
    r[1,4]    mccormick3[1,4]  1
    r[2,0]    OBJ       1.924
    r[2,0]    mccormick1[2,0]  1
    r[2,0]    mccormick2[2,0]  1
    r[2,0]    mccormick3[2,0]  1
    r[2,3]    OBJ       6.433
    r[2,3]    mccormick1[2,3]  1
    r[2,3]    mccormick2[2,3]  1
    r[2,3]    mccormick3[2,3]  1
    r[2,4]    OBJ       5.968
    r[2,4]    mccormick1[2,4]  1
    r[2,4]    mccormick2[2,4]  1
    r[2,4]    mccormick3[2,4]  1
    r[3,0]    OBJ       6.03
    r[3,0]    mccormick1[3,0]  1
    r[3,0]    mccormick2[3,0]  1
    r[3,0]    mccormick3[3,0]  1
    r[3,1]    OBJ       3.736
    r[3,1]    mccormick1[3,1]  1
    r[3,1]    mccormick2[3,1]  1
    r[3,1]    mccormick3[3,1]  1
    r[3,2]    OBJ       6.433
    r[3,2]    mccormick1[3,2]  1
    r[3,2]    mccormick2[3,2]  1
    r[3,2]    mccormick3[3,2]  1
    r[3,4]    OBJ       5.6600000000000006e-01
    r[3,4]    mccormick1[3,4]  1
    r[3,4]    mccormick2[3,4]  1
    r[3,4]    mccormick3[3,4]  1
    r[4,0]    OBJ       5.689
    r[4,0]    mccormick1[4,0]  1
    r[4,0]    mccormick2[4,0]  1
    r[4,0]    mccormick3[4,0]  1
    r[4,1]    OBJ       4.238
    r[4,1]    mccormick1[4,1]  1
    r[4,1]    mccormick2[4,1]  1
    r[4,1]    mccormick3[4,1]  1
    r[4,2]    OBJ       5.968
    r[4,2]    mccormick1[4,2]  1
    r[4,2]    mccormick2[4,2]  1
    r[4,2]    mccormick3[4,2]  1
    r[4,3]    OBJ       5.6600000000000006e-01
    r[4,3]    mccormick1[4,3]  1
    r[4,3]    mccormick2[4,3]  1
    r[4,3]    mccormick3[4,3]  1
    MARKER    'MARKER'                 'INTEND'
RHS
    RHS1      flow_cons_source  1
    RHS1      flow_cons_target  1
    RHS1      primal_lower  99
    RHS1      mccormick3[0,2]  -1
    RHS1      mccormick3[0,3]  -1
    RHS1      mccormick3[0,4]  -1
    RHS1      mccormick3[1,3]  -1
    RHS1      mccormick3[1,4]  -1
    RHS1      mccormick3[2,0]  -1
    RHS1      mccormick3[2,3]  -1
    RHS1      mccormick3[2,4]  -1
    RHS1      mccormick3[3,0]  -1
    RHS1      mccormick3[3,1]  -1
    RHS1      mccormick3[3,2]  -1
    RHS1      mccormick3[3,4]  -1
    RHS1      mccormick3[4,0]  -1
    RHS1      mccormick3[4,1]  -1
    RHS1      mccormick3[4,2]  -1
    RHS1      mccormick3[4,3]  -1
BOUNDS
 BV BND1      y[0,2]  
 BV BND1      y[0,3]  
 BV BND1      y[0,4]  
 BV BND1      y[1,3]  
 BV BND1      y[1,4]  
 BV BND1      y[2,0]  
 BV BND1      y[2,3]  
 BV BND1      y[2,4]  
 BV BND1      y[3,0]  
 BV BND1      y[3,1]  
 BV BND1      y[3,2]  
 BV BND1      y[3,4]  
 BV BND1      y[4,0]  
 BV BND1      y[4,1]  
 BV BND1      y[4,2]  
 BV BND1      y[4,3]  
 BV BND1      x[0,2]  
 BV BND1      x[0,3]  
 BV BND1      x[0,4]  
 BV BND1      x[1,3]  
 BV BND1      x[1,4]  
 BV BND1      x[2,0]  
 BV BND1      x[2,3]  
 BV BND1      x[2,4]  
 BV BND1      x[3,0]  
 BV BND1      x[3,1]  
 BV BND1      x[3,2]  
 BV BND1      x[3,4]  
 BV BND1      x[4,0]  
 BV BND1      x[4,1]  
 BV BND1      x[4,2]  
 BV BND1      x[4,3]  
 BV BND1      u[0,2]  
 BV BND1      u[0,3]  
 BV BND1      u[0,4]  
 BV BND1      u[1,3]  
 BV BND1      u[1,4]  
 BV BND1      u[2,0]  
 BV BND1      u[2,3]  
 BV BND1      u[2,4]  
 BV BND1      u[3,0]  
 BV BND1      u[3,1]  
 BV BND1      u[3,2]  
 BV BND1      u[3,4]  
 BV BND1      u[4,0]  
 BV BND1      u[4,1]  
 BV BND1      u[4,2]  
 BV BND1      u[4,3]  
 BV BND1      r[0,2]  
 BV BND1      r[0,3]  
 BV BND1      r[0,4]  
 BV BND1      r[1,3]  
 BV BND1      r[1,4]  
 BV BND1      r[2,0]  
 BV BND1      r[2,3]  
 BV BND1      r[2,4]  
 BV BND1      r[3,0]  
 BV BND1      r[3,1]  
 BV BND1      r[3,2]  
 BV BND1      r[3,4]  
 BV BND1      r[4,0]  
 BV BND1      r[4,1]  
 BV BND1      r[4,2]  
 BV BND1      r[4,3]  
ENDATA
