instances/shortest_path/discrete/shortest_path_5_15.kp
26080
100

[5.405402849611721 3.876650310778102 5.387162565993364 1.2977010871100265 2.4594695897170507 3.202786991147434 3.7590673657244245 3.349840121653823 2.9492475785387313 5.13896359355045 3.4245558167847823 2.6335912230314595 2.760952784142133 2.8065167239302276 4.545400585686457 3.6369760405780265]

[43 51 89 50 63 9 24 71 8 49 55 78 87 3 100 24]
